unsat
(:max-memory         18.43
 :memory             18.34
 :nlsat-arith-var    3
 :nlsat-atoms        14
 :nlsat-bool-var     1
 :nlsat-clauses      13
 :nlsat-conflicts    1
 :nlsat-propagations 6
 :nlsat-stages       2
 :num-allocs         51374
 :rlimit-count       2050
 :time               0.00
 :total-time         0.01)
